ObjectiveValue = 4321.9;
flow=[(1,6,3)(5,0,2)(5,1,3)(5,2,2)(5,6,26)(5,8,0)(5,10,1)(5,11,11)(5,12,8)(5,13,3)(6,1,3)(6,5,2)(6,10,3)(6,11,22)(9,6,4)(10,4,3)(10,6,3)(10,9,2)(11,6,6)(11,8,3)(11,10,3)(12,1,2)(12,5,6)(12,6,3)(12,11,6)];
